NPROCS=0
This instance is clustered!
Gurobi Optimizer version 9.0.0 build v9.0.0rc2 (linux64)
Optimize a model with 22 rows, 122 columns and 242 nonzeros
Model fingerprint: 0xfc54abe2
Variable types: 1 continuous, 121 integer (121 binary)
Coefficient statistics:
  Matrix range     [1e+00, 1e+00]
  Objective range  [1e+00, 7e+01]
  Bounds range     [1e+00, 1e+00]
  RHS range        [1e+00, 1e+00]
Presolve removed 2 rows and 30 columns
Presolve time: 0.00s
Presolved: 20 rows, 92 columns, 182 nonzeros
Variable types: 1 continuous, 91 integer (91 binary)

Root relaxation: objective 1.254488e+02, 20 iterations, 0.00 seconds

    Nodes    |    Current Node    |     Objective Bounds      |     Work
 Expl Unexpl |  Obj  Depth IntInf | Incumbent    BestBd   Gap | It/Node Time

     0     0  125.44878    0    8          -  125.44878      -     -    0s
H    0     0                     257.8857086  125.44878  51.4%     -    0s
     0     0  158.65915    0    9  257.88571  158.65915  38.5%     -    0s
H    0     0                     188.9851343  158.65915  16.0%     -    0s
     0     0  159.32656    0    6  188.98513  159.32656  15.7%     -    0s
     0     0  159.32656    0    6  188.98513  159.32656  15.7%     -    0s
     0     0  162.14323    0    9  188.98513  162.14323  14.2%     -    0s
     0     0  162.14323    0    6  188.98513  162.14323  14.2%     -    0s
     0     0  162.14323    0    9  188.98513  162.14323  14.2%     -    0s
     0     0  162.14323    0    8  188.98513  162.14323  14.2%     -    0s
     0     0  162.14323    0    8  188.98513  162.14323  14.2%     -    0s
     0     2  162.14323    0    8  188.98513  162.14323  14.2%     -    0s

Cutting planes:
  Gomory: 2
  MIR: 1
  Lazy constraints: 60

Explored 224 nodes (813 simplex iterations) in 0.10 seconds
Thread count was 12 (of 12 available processors)

Solution count 2: 188.985 257.886 

Optimal solution found (tolerance 1.00e-04)
Best objective 1.889851343058e+02, best bound 1.889851343058e+02, gap 0.0000%

User-callback calls 661, time in user-callback 0.00 sec
/projects/academic/josewalt/caigao/RRARP_BD/BendersDecomp/ret/model_outs/n_9_m_9_algo_2.out
 =====>>>>> Solution is written to file in <../ret/model_outs> !!!
===>> All Done!
